Using license file /home/benedond/gurobi.lic
Using gurobi.env file
Set parameter Threads to value 1
Academic license - for non-commercial use only
Changed value of parameter TimeLimit to 300.0
   Prev: inf  Min: 0.0  Max: inf  Default: inf
Gurobi Optimizer version 9.0.1 build v9.0.1rc0 (linux64)
Optimize a model with 1350 rows, 1275 columns and 5073 nonzeros
Model fingerprint: 0xd634b6ba
Variable types: 25 continuous, 1250 integer (1250 binary)
Coefficient statistics:
  Matrix range     [1e+00, 4e+02]
  Objective range  [5e+01, 4e+02]
  Bounds range     [1e+00, 1e+00]
  RHS range        [1e+00, 1e+03]
Presolve removed 611 rows and 609 columns
Presolve time: 0.37s
Presolved: 739 rows, 666 columns, 2630 nonzeros
Variable types: 25 continuous, 641 integer (641 binary)

Root relaxation: objective 1.411000e+03, 318 iterations, 0.00 seconds

    Nodes    |    Current Node    |     Objective Bounds      |     Work
 Expl Unexpl |  Obj  Depth IntInf | Incumbent    BestBd   Gap | It/Node Time

     0     0 1411.00000    0   24          - 1411.00000      -     -    0s
H    0     0                    2836.0000000 1411.00000  50.2%     -    0s
     0     0 1411.00000    0   74 2836.00000 1411.00000  50.2%     -    0s
     0     0 1411.00000    0   29 2836.00000 1411.00000  50.2%     -    0s
H    0     0                    2753.0000000 1411.00000  48.7%     -    0s
     0     0 1411.00000    0   41 2753.00000 1411.00000  48.7%     -    0s
     0     0 1411.00000    0   41 2753.00000 1411.00000  48.7%     -    0s
     0     0 1411.00000    0   37 2753.00000 1411.00000  48.7%     -    0s
     0     0 1411.00000    0   37 2753.00000 1411.00000  48.7%     -    0s
     0     0 1411.00000    0   34 2753.00000 1411.00000  48.7%     -    0s
     0     0 1411.00000    0   34 2753.00000 1411.00000  48.7%     -    0s
H    0     0                    2471.0000000 1411.00000  42.9%     -    0s
H    0     0                    2279.0000000 1411.00000  38.1%     -    0s
H    0     0                    2022.0000000 1411.00000  30.2%     -    0s
     0     2 1411.00000    0   34 2022.00000 1411.00000  30.2%     -    0s
H   54    51                    1945.0000000 1411.00000  27.5%   7.1    0s
H  135    93                    1891.0000000 1411.00000  25.4%   6.3    0s
*  581   296              19    1887.0000000 1417.31241  24.9%  11.1    1s
*  896   332              60    1874.0000000 1509.16544  19.5%  10.2    1s
* 1021   314              38    1873.0000000 1537.41326  17.9%  10.2    1s
H 1254   285                    1844.0000000 1563.57505  15.2%   9.4    1s
H 3676   161                    1842.0000000 1807.23082  1.89%   8.6    3s

Cutting planes:
  Cover: 2
  Clique: 3
  MIR: 2
  GUB cover: 3
  Relax-and-lift: 1

Explored 3887 nodes (35873 simplex iterations) in 3.32 seconds
Thread count was 1 (of 4 available processors)

Solution count 10: 1842 1844 1873 ... 2471

Optimal solution found (tolerance 1.00e-04)
Best objective 1.842000000000e+03, best bound 1.842000000000e+03, gap 0.0000%
